NAME : n40w160.003.346.tour
COMMENT : Length = 346
COMMENT : Found by LKH [Keld Helsgaun] Tue May  2 05:19:04 2017
TYPE : TOUR
DIMENSION : 41
TOUR_SECTION
1
7
19
13
37
11
9
36
28
35
29
18
20
40
2
27
34
23
26
24
5
17
21
25
15
39
31
38
10
22
33
32
14
6
4
30
3
16
8
41
12
-1
EOF
